g3 2 1 0	# problem testfile
 25 11 1 0 10	# vars, constraints, objectives, ranges, eqns
 0 1	# nonlinear constraints, objectives
 0 0	# network constraints: nonlinear, linear
 0 25 0	# nonlinear vars in constraints, objectives, both
 0 0 0 1	# linear network variables; functions; arith, flags
 0 0 0 0 0	# discrete variables: binary, integer, nonlinear (b,c,o)
 95 25	# nonzeros in Jacobian, gradients
 0 0	# max name lengths: constraints, variables
 0 0 0 0 0	# common exprs: b,c,o,c1,o1
C0
n0
C1
n0
C2
n0
C3
n0
C4
n0
C5
n0
C6
n0
C7
n0
C8
n0
C9
n0
C10
n0
O0 0
o54
15
o2
v0
v10
o2
v1
v11
o2
v2
v12
o2
v3
v13
o2
v4
v14
o2
v5
v15
o2
v6
v16
o2
v7
v17
o2
v8
v18
o2
v9
v19
o2
n0.5
o5
v20
n2
o2
n0.5
o5
v21
n2
o2
n0.5
o5
v22
n2
o2
n0.5
o5
v23
n2
o2
n0.5
o5
v24
n2
x25
0 0.99
1 0.99
2 0.99
3 0.99
4 0.99
5 0.99
6 0.99
7 0.99
8 0.99
9 0.99
10 -0.99
11 -0.99
12 -0.99
13 -0.99
14 -0.99
15 -0.99
16 -0.99
17 -0.99
18 -0.99
19 -0.99
20 0.5
21 0.5
22 0.5
23 0.5
24 0.5
r
2 6
4 5
4 5
4 5
4 5
4 5
4 5
4 5
4 5
4 5
4 5
b
0 -1 1
0 -1 1
0 -1 1
0 -1 1
0 -1 1
0 -1 1
0 -1 1
0 -1 1
0 -1 1
0 -1 1
0 -1 1
0 -1 1
0 -1 1
0 -1 1
0 -1 1
0 -1 1
0 -1 1
0 -1 1
0 -1 1
0 -1 1
0 0 2
0 0 2
0 0 2
0 0 2
0 0 2
k24
2
4
6
8
10
12
14
16
18
20
22
24
26
28
30
32
34
36
38
40
51
62
73
84
J0 25
0 1
1 1
2 1
3 1
4 1
5 1
6 1
7 1
8 1
9 1
10 1
11 1
12 1
13 1
14 1
15 1
16 1
17 1
18 1
19 1
20 1
21 1
22 1
23 1
24 1
J1 7
0 1
10 1
20 1
21 1
22 1
23 1
24 1
J2 7
1 1
11 1
20 1
21 1
22 1
23 1
24 1
J3 7
2 1
12 1
20 1
21 1
22 1
23 1
24 1
J4 7
3 1
13 1
20 1
21 1
22 1
23 1
24 1
J5 7
4 1
14 1
20 1
21 1
22 1
23 1
24 1
J6 7
5 1
15 1
20 1
21 1
22 1
23 1
24 1
J7 7
6 1
16 1
20 1
21 1
22 1
23 1
24 1
J8 7
7 1
17 1
20 1
21 1
22 1
23 1
24 1
J9 7
8 1
18 1
20 1
21 1
22 1
23 1
24 1
J10 7
9 1
19 1
20 1
21 1
22 1
23 1
24 1
G0 25
0 0
1 0
2 0
3 0
4 0
5 0
6 0
7 0
8 0
9 0
10 0
11 0
12 0
13 0
14 0
15 0
16 0
17 0
18 0
19 0
20 0
21 0
22 0
23 0
24 0
